proyfinal/src/viki/013/experimentInOfficeAgust.take6.output/d4f6633f-18ae-4bd2-92c6-51ffc9a7c07d.als.dat
{'cnf.clauses': '118081',
 'cnf.totvars': '69608',
 'conflict literals': '4',
 'conflicts': '4',
 'decisions': '2279',
 'memused.mb': '14.64',
 'outcome': 'UNSAT',
 'propagations': '23061',
 'restarts': '1',
 'solver.msecs': 35,
 'task.msecs': 85}
