proyfinal/src/viki/013/experimentInOfficeAgust.take6.output/d4f6633f-18ae-4bd2-92c6-51ffc9a7c07d.als.out
Reading from standard input... Use '--help' for help.
============================[ Problem Statistics ]=============================
|                                                                             |
|  Number of variables:         69608                                         |
|  Number of clauses:          118081                                         |
|  Parse time:                   0.03 s                                       |
|                                                                             |
============================[ Search Statistics ]==============================
| Conflicts |          ORIGINAL         |          LEARNT          | Progress |
|           |    Vars  Clauses Literals |    Limit  Clauses Lit/Cl |          |
===============================================================================
===============================================================================
restarts              : 1
conflicts             : 4              (114 /sec)
decisions             : 2279           (0.00 % random) (64914 /sec)
propagations          : 23061          (656859 /sec)
conflict literals     : 4              (0.00 % deleted)
Memory used           : 14.64 MB
CPU time              : 0.035108 s

UNSATISFIABLE
